p tw 43 503
0 1
0 2
0 3
0 4
0 5
0 6
0 10
0 19
0 25
0 40
0 42
1 2
1 3
1 4
1 5
1 6
1 15
1 18
1 25
1 26
1 14
1 16
1 29
1 30
1 31
1 8
1 10
1 27
1 32
1 9
1 17
1 39
1 40
1 41
1 22
1 36
1 12
1 24
1 35
1 13
1 33
1 38
1 23
2 3
2 4
2 5
2 6
2 7
2 8
2 9
2 10
2 15
2 18
2 25
2 26
2 11
2 16
2 20
2 29
2 34
2 39
2 31
2 33
2 35
2 37
2 40
2 14
2 23
2 36
3 4
3 5
3 6
3 12
3 14
3 22
3 33
3 41
3 8
3 10
3 23
3 15
3 20
3 25
3 26
3 28
4 5
4 6
4 8
4 11
4 14
4 18
4 20
4 30
4 31
4 35
4 17
4 19
4 24
4 29
4 36
4 10
4 28
4 37
4 26
4 38
4 39
4 15
4 21
4 23
4 13
4 33
4 34
4 25
4 40
4 42
5 6
5 17
5 20
5 27
5 31
5 33
5 7
5 22
5 25
5 28
5 30
5 8
5 13
5 34
5 35
5 23
5 36
5 40
6 8
6 11
6 16
6 17
6 20
6 14
6 29
6 30
6 31
6 7
6 22
6 25
6 28
6 18
6 36
7 8
7 9
7 10
7 22
7 25
7 28
7 30
7 11
7 16
7 20
7 29
7 18
7 21
7 27
7 34
7 38
8 9
8 10
8 11
8 16
8 17
8 20
8 27
8 31
8 32
8 14
8 18
8 30
8 35
8 29
8 13
8 33
8 34
8 23
9 10
9 11
9 13
9 14
9 18
9 27
9 35
9 17
9 25
9 39
9 40
9 41
9 12
9 24
9 31
9 28
9 29
9 42
9 15
9 33
9 36
10 11
10 12
10 13
10 14
10 15
10 16
10 24
10 27
10 28
10 31
10 32
10 37
10 19
10 25
10 40
10 42
10 22
10 30
10 36
10 41
10 18
10 29
10 38
10 23
11 12
11 13
11 14
11 15
11 16
11 17
11 18
11 19
11 20
11 27
11 35
11 29
11 25
11 34
11 41
11 42
11 28
11 38
12 13
12 14
12 15
12 22
12 33
12 41
12 18
12 24
12 31
12 35
13 14
13 15
13 18
13 27
13 35
13 33
13 34
13 25
13 41
13 42
13 31
13 38
14 15
14 16
14 17
14 18
14 19
14 29
14 30
14 31
14 27
14 32
14 33
14 34
14 35
14 22
14 41
14 21
14 23
14 38
15 17
15 25
15 26
15 27
15 18
15 16
15 24
15 28
15 19
15 21
15 23
15 30
15 34
15 41
15 42
15 29
15 38
15 20
15 31
15 33
15 36
15 39
16 17
16 18
16 19
16 20
16 24
16 27
16 28
16 29
16 30
16 31
16 34
16 37
16 38
16 41
17 18
17 19
17 20
17 21
17 22
17 23
17 24
17 25
17 26
17 27
17 31
17 33
17 29
17 36
17 39
17 40
17 41
17 28
17 35
17 42
18 19
18 21
18 22
18 23
18 24
18 25
18 26
18 27
18 35
18 31
18 33
18 37
18 40
18 34
18 38
18 29
18 30
18 36
18 28
18 42
19 21
19 22
19 23
19 24
19 29
19 31
19 36
19 30
19 25
19 40
19 42
20 30
20 31
20 35
20 27
20 33
20 29
20 26
20 34
20 39
20 25
20 28
21 22
21 23
21 24
21 30
21 27
21 34
21 38
22 23
22 24
22 25
22 28
22 30
22 33
22 41
22 36
23 24
23 30
23 36
23 40
24 27
24 28
24 29
24 31
24 36
24 37
24 35
25 26
25 27
25 28
25 30
25 40
25 42
25 34
25 41
25 39
25 36
26 27
26 28
26 29
26 38
26 39
26 34
27 28
27 31
27 32
27 33
27 34
27 35
27 38
27 36
27 39
28 30
28 31
28 37
28 29
28 38
28 39
28 35
28 42
29 30
29 31
29 36
29 38
29 39
29 32
29 34
29 37
29 40
29 35
29 42
30 31
30 35
30 36
30 41
31 32
31 35
31 33
31 36
31 37
31 40
31 38
31 39
32 33
32 34
32 36
32 37
32 40
33 34
33 41
33 35
33 37
33 40
33 38
33 36
33 39
34 36
34 37
34 40
34 39
34 35
34 41
34 42
34 38
35 37
35 40
35 42
36 37
36 40
36 41
36 39
37 40
37 38
37 41
38 39
38 41
39 40
39 41
40 42
40 41
41 42
